benchmarks/rsa/s-rsa-9.smt2
(declare-fun l0_0 () (_ BitVec 32))
(assert (bvsge l0_0 (_ bv1 32)) )
(assert (bvsle l0_0 (_ bv1717 32)) )

(declare-fun h9 () (_ BitVec 32))
(assert (bvsge h9 (_ bv1 32)) )
(assert (bvsle h9 (_ bv7 32)) )


(define-fun PC9 () Bool  (and (and (and (and (and (and ( bvsle h9 #x00000007) ( = ( bvsmod h9 #x00000002) #x00000001)) ( bvsgt ( bvsdiv h9 #x00000002) #x00000000)) ( = ( bvsmod ( bvsdiv h9 #x00000002) #x00000002) #x00000001)) ( bvsle ( bvmul l0_0 ( bvsmod ( bvmul ( bvsmod l0_0 #x000006B5) ( bvsmod l0_0 #x000006B5)) #x000006B5)) #x000006B5)) ( bvsgt ( bvsdiv ( bvsdiv h9 #x00000002) #x00000002) #x00000000)) ( bvsgt ( bvmul l0_0 ( bvsmod ( bvmul ( bvsmod ( bvmul l0_0 ( bvsmod ( bvmul ( bvsmod l0_0 #x000006B5) ( bvsmod l0_0 #x000006B5)) #x000006B5)) #x000006B5) ( bvsmod ( bvmul l0_0 ( bvsmod ( bvmul ( bvsmod l0_0 #x000006B5) ( bvsmod l0_0 #x000006B5)) #x000006B5)) #x000006B5)) #x000006B5)) #x000006B5)) )

(assert PC9)